NAME: PointSet_Angle_5_5
TYPE: TSP
COMMENT: Points chosen discrete uniformly at random out of ${0, \ldots, 500}^2$.
DIMENSION: 5
EDGE_WEIGHT_TYPE: EUC_2D
NODE_COORD_SECTION
1 7 86
2 270 30
3 224 244
4 302 393
5 387 337
EOF
